; sanic :: corpus-study/repo_src/sanic/sanic/models/asgi.py :: EVENT 'MockProtocol._not_paused' :: naive encoding (verdict: sat)
; Generated by snf-pipeline (encoder.py) -- run with any
; SMT-LIB2-compliant solver, e.g. `z3 sanic__corpus-study_repo_src_sanic_sanic_models_asgi.py__MockProtocol._not_paused__naive.smt2`
; benchmark generated from python API
(set-info :status unknown)
(declare-fun ewake2_0 () Bool)
(assert
 (let (($x27 (not ewake2_0)))
(or $x27)))
(check-sat)
